100
3259
42 115
70 149
17 184
34 194
53 185
60 197
9 127
4 123
50 165
96 114
36 68
64 66
59 95
38 199
61 25
29 60
42 38
18 77
32 84
85 33
89 44
72 188
72 123
56 148
46 95
13 131
36 124
69 169
59 86
33 15
91 28
53 158
95 147
97 91
4 63
1 59
50 191
70 137
17 55
93 157
59 103
47 120
20 67
78 124
65 124
60 196
87 163
41 139
40 58
67 115
47 103
13 146
16 159
18 48
25 192
3 102
2 198
97 47
61 200
49 105
65 120
4 22
36 154
4 76
15 65
61 55
40 156
11 85
63 181
3 77
77 191
15 15
3 155
3 90
89 124
81 67
50 59
67 90
60 16
44 134
45 111
49 101
99 127
67 89
12 134
58 64
44 20
42 168
71 38
98 102
6 199
95 154
16 66
2 118
34 133
10 118
38 58
32 37
82 72
55 86
